
Gurobi 8.1.1 (win64, Python) logging started 07/01/19 11:50:23

Academic license - for non-commercial use only

Gurobi 8.1.1 (win64, Python) logging started 07/01/19 11:51:16

Academic license - for non-commercial use only

Gurobi 8.1.1 (win64, Python) logging started 07/01/19 11:51:45

Academic license - for non-commercial use only

Gurobi 8.1.1 (win64, Python) logging started 07/01/19 11:52:26

Academic license - for non-commercial use only

Gurobi 8.1.1 (win64, Python) logging started 07/01/19 11:58:54

Academic license - for non-commercial use only

Gurobi 8.1.1 (win64, Python) logging started 07/01/19 11:59:32

Academic license - for non-commercial use only

Gurobi 8.1.1 (win64, Python) logging started 07/01/19 12:01:07

Academic license - for non-commercial use only
